10J3M/DAT/10J3MUTL-8.dat
10 3
41.4697 41.4697
15.6476 15.6476
7.4369 7.4369
16.4209 16.4209
32.4358 32.4358
15.7935 15.7935
49.8559 49.8559
32.6612 32.6612
31.5614 31.5614
2.6149 2.6149
61.4744