10J3M/SOL/10J3MUTL-8.sol
solution status: optimal solution found
objective value:                              63.1856
x#3#2                               0.417770093761108 	(obj:0)
x#3#3                               0.582229906238892 	(obj:0)
x#4#1                                               1 	(obj:0)
x#6#3                                               1 	(obj:0)
x#7#3                                               1 	(obj:0)
x#8#1                                               1 	(obj:0)
x#9#2                               0.165963082757082 	(obj:0)
x#10#1                             0.0461985238791711 	(obj:0)
x#10#2                              0.953801476120829 	(obj:0)
z                                             63.1856 	(obj:1)
